(set-info :smt-lib-version 2.6)
(set-logic QF_UFLRA)
(set-info :source |
MathSat group

|)
(set-info :category "random")
(set-info :status sat)
(declare-fun x0 () Real)
(declare-fun x1 () Real)
(declare-fun x2 () Real)
(declare-fun x3 () Real)
(declare-fun x4 () Real)
(declare-fun x5 () Real)
(declare-fun x6 () Real)
(declare-fun x7 () Real)
(declare-fun x8 () Real)
(declare-fun x9 () Real)
(declare-fun x10 () Real)
(declare-fun x11 () Real)
(declare-fun x12 () Real)
(declare-fun x13 () Real)
(declare-fun x14 () Real)
(declare-fun x15 () Real)
(declare-fun x16 () Real)
(declare-fun x17 () Real)
(declare-fun x18 () Real)
(declare-fun x19 () Real)
(declare-fun x20 () Real)
(declare-fun x21 () Real)
(declare-fun x22 () Real)
(declare-fun x23 () Real)
(declare-fun x24 () Real)
(declare-fun x25 () Real)
(declare-fun x26 () Real)
(declare-fun x27 () Real)
(declare-fun x28 () Real)
(declare-fun x29 () Real)
(declare-fun x30 () Real)
(declare-fun x31 () Real)
(declare-fun x32 () Real)
(declare-fun x33 () Real)
(declare-fun x34 () Real)
(declare-fun x35 () Real)
(declare-fun x36 () Real)
(declare-fun x37 () Real)
(declare-fun x38 () Real)
(declare-fun x39 () Real)
(declare-fun x40 () Real)
(declare-fun x41 () Real)
(declare-fun x42 () Real)
(declare-fun x43 () Real)
(declare-fun x44 () Real)
(declare-fun x45 () Real)
(declare-fun x46 () Real)
(declare-fun x47 () Real)
(declare-fun x48 () Real)
(declare-fun x49 () Real)
(declare-fun f0_1 (Real) Real)
(declare-fun f0_2 (Real Real) Real)
(declare-fun f0_3 (Real Real Real) Real)
(declare-fun f0_4 (Real Real Real Real) Real)
(declare-fun P0 () Bool)
(declare-fun P1 () Bool)
(declare-fun P2 () Bool)
(declare-fun P3 () Bool)
(declare-fun P4 () Bool)
(declare-fun P5 () Bool)
(declare-fun P6 () Bool)
(declare-fun P7 () Bool)
(declare-fun P8 () Bool)
(declare-fun P9 () Bool)
(declare-fun P10 () Bool)
(declare-fun P11 () Bool)
(declare-fun P12 () Bool)
(declare-fun P13 () Bool)
(declare-fun P14 () Bool)
(declare-fun P15 () Bool)
(declare-fun P16 () Bool)
(declare-fun P17 () Bool)
(declare-fun P18 () Bool)
(declare-fun P19 () Bool)
(declare-fun P20 () Bool)
(declare-fun P21 () Bool)
(declare-fun P22 () Bool)
(declare-fun P23 () Bool)
(declare-fun P24 () Bool)
(declare-fun P25 () Bool)
(declare-fun P26 () Bool)
(declare-fun P27 () Bool)
(declare-fun P28 () Bool)
(declare-fun P29 () Bool)
(declare-fun P30 () Bool)
(declare-fun P31 () Bool)
(declare-fun P32 () Bool)
(declare-fun P33 () Bool)
(declare-fun P34 () Bool)
(declare-fun P35 () Bool)
(declare-fun P36 () Bool)
(declare-fun P37 () Bool)
(declare-fun P38 () Bool)
(declare-fun P39 () Bool)
(declare-fun P40 () Bool)
(declare-fun P41 () Bool)
(declare-fun P42 () Bool)
(declare-fun P43 () Bool)
(declare-fun P44 () Bool)
(declare-fun P45 () Bool)
(declare-fun P46 () Bool)
(declare-fun P47 () Bool)
(declare-fun P48 () Bool)
(declare-fun P49 () Bool)
(assert (let ((?v_67 (* 12 x41)) (?v_36 (* 6 x27)) (?v_8 (* 4 x20)) (?v_191 (distinct (- (- (* 8 x11) (* 24 x7)) (* 25 x4)) 20)) (?v_18 (* 4 x14)) (?v_78 (* 18 x29)) (?v_222 (<= (- (- (* 15 x29) (* 6 x16)) (* 13 x40)) 11)) (?v_134 (< (- (- (* 14 x0) (* 11 x34)) (* 24 x35)) 3)) (?v_89 (* 21 x40)) (?v_139 (distinct (- (+ (* 10 x40) (* 17 x48)) (* 25 x3)) 20)) (?v_137 (< (- (- (* 20 x21) (* 5 x39)) (* 10 x49)) 0))) (let ((?v_198 (< (- (+ ?v_89 ?v_78) (* 10 x20)) 1)) (?v_133 (distinct (f0_1 x45) (f0_2 x7 x2))) (?v_74 (f0_2 x4 x32))) (let ((?v_126 (= ?v_74 (f0_2 x21 x19))) (?v_65 (distinct (f0_2 x44 x21) x36)) (?v_34 (= (f0_2 x45 x36) x43)) (?v_54 (distinct (f0_2 x33 x6) (f0_2 x48 x28))) (?v_3 (f0_1 x23))) (let ((?v_17 (= ?v_3 (f0_1 x9))) (?v_61 (= (f0_2 x14 x20) (f0_2 x14 x1))) (?v_122 (= (f0_1 x29) (f0_2 x46 x27))) (?v_2 (f0_1 x10))) (let ((?v_16 (distinct ?v_2 (f0_2 x34 x16))) (?v_144 (f0_1 x40))) (let ((?v_163 (distinct x14 ?v_144)) (?v_130 (= (f0_2 x20 x42) (f0_2 x4 x33))) (?v_238 (distinct (f0_2 x49 x40) (f0_2 x41 x25))) (?v_118 (= (f0_1 x3) x42)) (?v_75 (f0_2 x9 x4))) (let ((?v_97 (distinct ?v_75 x14)) (?v_0 (= (f0_1 x25) x18)) (?v_94 (distinct (f0_2 x38 x11) ?v_144)) (?v_38 (= (f0_2 x15 x37) x6)) (?v_28 (f0_1 x30))) (let ((?v_40 (distinct ?v_28 ?v_3)) (?v_200 (= (f0_2 x39 x24) (f0_2 x10 x6))) (?v_234 (= (f0_2 x29 x4) ?v_75)) (?v_101 (f0_1 x20))) (let ((?v_25 (distinct ?v_101 (f0_2 x8 x39))) (?v_169 (distinct x44 x30)) (?v_48 (= x33 (f0_1 x19))) (?v_21 (f0_1 x33))) (let ((?v_58 (distinct ?v_21 (f0_2 x27 x38))) (?v_79 (distinct x7 (f0_2 x9 x30))) (?v_43 (= (f0_1 x27) ?v_21)) (?v_184 (distinct x49 x14)) (?v_172 (= ?v_28 x5)) (?v_242 (= x13 x40)) (?v_110 (= (f0_2 x46 x13) x49)) (?v_10 (f0_1 x11))) (let ((?v_41 (= x46 ?v_10)) (?v_203 (distinct (f0_2 x49 x22) (f0_2 x46 x35))) (?v_68 (distinct x5 ?v_21)) (?v_138 (= ?v_10 x5)) (?v_127 (= x39 x23)) (?v_23 (= (f0_2 x4 x19) ?v_2)) (?v_71 (= (f0_2 x7 x20) x4)) (?v_69 (= x5 ?v_74)) (?v_125 (distinct x0 x8)) (?v_154 (distinct x23 (f0_2 x27 x3))) (?v_59 (= (f0_2 x47 x34) (f0_2 x38 x31))) (?v_259 (distinct x1 x20)) (?v_119 (= x18 (f0_2 x25 x30))) (?v_193 (= (f0_2 x0 x11) x43)) (?v_235 (distinct x5 (f0_2 x35 x20))) (?v_189 (= (f0_1 x36) x6)) (?v_202 (= (f0_2 x43 x10) (f0_2 x20 x10))) (?v_194 (= (f0_2 x27 x45) ?v_101)) (?v_211 (= (f0_2 x47 x13) (f0_1 x24))) (?v_20 (distinct (f0_2 x11 x38) (f0_1 x13))) (?v_55 (not ?v_61))) (let ((?v_92 (not ?v_259)) (?v_157 (not P2)) (?v_1 (not ?v_41)) (?v_7 (not P11)) (?v_53 (not ?v_211)) (?v_29 (not P4)) (?v_142 (not P38)) (?v_141 (not ?v_25)) (?v_195 (not ?v_23)) (?v_206 (not P26)) (?v_124 (not P47)) (?v_47 (not ?v_94)) (?v_32 (not P8)) (?v_155 (not P41)) (?v_50 (not P33)) (?v_22 (not ?v_16)) (?v_56 (not P17)) (?v_186 (not P23)) (?v_145 (not ?v_17)) (?v_62 (not ?v_20)) (?v_253 (not P9)) (?v_26 (not ?v_43)) (?v_102 (not ?v_79)) (?v_121 (not P16)) (?v_240 (not P24)) (?v_108 (not ?v_0)) (?v_183 (not ?v_234)) (?v_77 (not ?v_172)) (?v_156 (not P43)) (?v_146 (not P36)) (?v_247 (not ?v_34)) (?v_136 (not ?v_38)) (?v_81 (not P12)) (?v_149 (not P7)) (?v_214 (not P48)) (?v_196 (not ?v_235)) (?v_105 (not ?v_48)) (?v_66 (not ?v_54)) (?v_63 (not P25)) (?v_182 (not ?v_125)) (?v_260 (not ?v_191)) (?v_64 (not P44)) (?v_147 (not ?v_154)) (?v_241 (not ?v_69)) (?v_84 (not P46)) (?v_72 (not P19)) (?v_131 (not P1)) (?v_228 (not ?v_68)) (?v_212 (not ?v_126)) (?v_85 (not P21)) (?v_258 (not ?v_198)) (?v_128 (not P42)) (?v_233 (not P10)) (?v_229 (not P31))) (let ((?v_176 (or ?v_229 P41)) (?v_164 (not P34)) (?v_96 (not ?v_203)) (?v_106 (not P32)) (?v_245 (not P35)) (?v_143 (not P45)) (?v_95 (not P22)) (?v_116 (not P14)) (?v_181 (not ?v_242)) (?v_135 (not P37)) (?v_246 (not P5)) (?v_148 (not P30)) (?v_113 (not P3)) (?v_220 (not ?v_59)) (?v_210 (not ?v_169)) (?v_112 (not P18)) (?v_180 (not ?v_58)) (?v_173 (not ?v_193)) (?v_158 (not ?v_118)) (?v_150 (not ?v_119)) (?v_132 (not P20)) (?v_179 (not ?v_127)) (?v_178 (not P6)) (?v_170 (not ?v_137)) (?v_244 (not ?v_139)) (?v_209 (not ?v_134)) (?v_207 (not ?v_110)) (?v_256 (not P29)) (?v_201 (not ?v_133)) (?v_221 (not ?v_122)) (?v_174 (not P15)) (?v_190 (not ?v_222)) (?v_239 (not ?v_40)) (?v_249 (not ?v_189)) (?v_197 (not P13)) (?v_192 (not ?v_71)) (?v_216 (not ?v_200)) (?v_251 (not ?v_65)) (?v_204 (not P0)) (?v_236 (not ?v_130)) (?v_226 (not P49)) (?v_218 (not ?v_184)) (?v_254 (not P40)) (?v_252 (not ?v_202)) (?v_231 (not ?v_238)) (?v_227 (not ?v_194)) (?v_232 (not P28)) (?v_262 (not P27)) (?v_261 (not ?v_163)) (?v_257 (not P39)) (?v_263 (or P13 ?v_61)) (?v_187 (< (- (- 0 (* 7 x19)) 0) 4))) (let ((?v_24 (not ?v_187)) (?v_30 (<= (- (- (* 13 x41) 0) (* 16 x37)) 0)) (?v_35 (= (+ (- 0 (* 27 x16)) (* 17 x16)) 8)) (?v_13 (< (- (* 20 x26) (* 19 x18)) 3))) (let ((?v_42 (not ?v_13)) (?v_86 (<= (+ (* 8 x40) ?v_36 (* 27 x8)) 8)) (?v_82 (distinct (+ (* 11 x7) (* 8 x37) (* 7 x39)) 19)) (?v_215 (distinct (- (+ ?v_36 (* 13 x29)) x25) 15))) (let ((?v_109 (not ?v_215)) (?v_104 (not ?v_86)) (?v_161 (not ?v_82)) (?v_129 (<= (- (- 0 (* 4 x39)) ?v_89) 16)) (?v_175 (not ?v_30))) (let ((?v_152 (not ?v_129)) (?v_213 (< (- (- (* 18 x18) 0) (* 25 x7)) 1))) (let ((?v_237 (not ?v_213)) (?v_5 (<= (+ (- (* (- 21) x45) (* 11 x21)) (* 24 x22)) 24))) (let ((?v_60 (not ?v_5)) (?v_224 (<= (- (- (* (- 5) x20) (* 12 x22)) x40) (- 15)))) (let ((?v_19 (not ?v_224)) (?v_6 (< (+ (- (* (- 7) x39) (* 22 x24)) (* 2 x25)) (- 16)))) (let ((?v_57 (not ?v_6)) (?v_4 (<= (- (+ (* 8 x24) ?v_8) (* 6 x4)) (- 7))) (?v_46 (= (- (* (- 4) x15) (* 11 x30)) 29))) (let ((?v_39 (not ?v_46)) (?v_100 (not ?v_4)) (?v_12 (<= (- (+ (* 10 x24) (* 13 x3)) 0) (- 20)))) (let ((?v_37 (not ?v_12)) (?v_9 (<= (- (+ (* (- 21) x23) (* 24 x3)) (* 25 x39)) (- 16))) (?v_33 (= (+ (- (* (- 21) x16) ?v_36) (* 17 x45)) 29)) (?v_14 (< (- (- (* (- 21) x22) x7) ?v_67) 2))) (let ((?v_115 (not ?v_14)) (?v_160 (<= (+ (- (* (- 11) x30) (* 24 x16)) ?v_18) 15))) (let ((?v_15 (not ?v_160)) (?v_11 (<= (- (- (* 7 x11) ?v_8) (* 18 x46)) (- 3)))) (let ((?v_93 (not ?v_11)) (?v_49 (<= (+ (* (- 12) x1) (* 6 x46) (* 11 x13)) 20)) (?v_99 (not ?v_9)) (?v_44 (< (- (- (* (- 20) x41) ?v_78) (* 23 x19)) 15))) (let ((?v_27 (not ?v_44)) (?v_107 (< (- (+ (* (- 18) x48) (* 19 x26)) ?v_18) 9)) (?v_151 (<= (- (- (* (- 9) x10) (* 21 x34)) (* 12 x13)) 13))) (let ((?v_159 (not ?v_151)) (?v_162 (distinct (- (- (* (- 2) x30) (* 17 x39)) (* 24 x42)) 24))) (let ((?v_208 (not ?v_162)) (?v_70 (<= (+ (* 14 x24) (* 8 x12) (* 12 x44)) (- 14))) (?v_31 (< (- (- (* (- 15) x20) (* 24 x30)) (* 25 x2)) (- 11)))) (let ((?v_120 (not ?v_31)) (?v_87 (<= (- (- (* 7 x2) 0) (* 19 x1)) (- 14))) (?v_52 (= (+ (- (* (- 19) x33) (* 2 x7)) (* 12 x8)) 0)) (?v_114 (<= (+ (* 23 x11) (* 6 x5)) (- 18))) (?v_51 (distinct (- (+ (* (- 13) x42) (* 12 x2)) (* 23 x12)) 26)) (?v_103 (not ?v_33)) (?v_73 (<= (+ (- (* 14 x7) 0) (* 22 x2)) (- 17)))) (let ((?v_153 (not ?v_73)) (?v_45 (<= (+ (* 19 x44) (* 21 x33) (* 3 x13)) (- 1)))) (let ((?v_188 (not ?v_45)) (?v_111 (<= (- (- (* 22 x40) (* 7 x36)) (* 23 x26)) (- 3)))) (let ((?v_177 (not ?v_111)) (?v_250 (not ?v_49)) (?v_199 (<= (- (+ x16 (* 14 x9)) 0) (- 10))) (?v_80 (not ?v_52)) (?v_76 (<= (- (+ (* (- 10) x48) (* 17 x32)) ?v_67) 28))) (let ((?v_83 (not ?v_76)) (?v_91 (not ?v_70)) (?v_219 (distinct (+ (- (* (- 22) x21) (* 10 x37)) (* 12 x43)) (- 26)))) (let ((?v_88 (not ?v_219)) (?v_90 (< (+ (* (- 25) x36) (* 3 x24) (* 27 x7)) (- 12))) (?v_140 (< (+ (* (- 10) x19) (* 6 x1) (* 24 x15)) (- 16)))) (let ((?v_255 (not ?v_140)) (?v_165 (<= (- (* (- 2) x22) (* 18 x1)) (- 29))) (?v_98 (not ?v_90)) (?v_167 (= (+ (- (* 7 x47) (* 9 x22)) (* 24 x11)) (- 22)))) (let ((?v_168 (not ?v_167)) (?v_117 (< (- (+ (* (- 18) x7) (* 11 x27)) (* 25 x30)) (- 9))) (?v_243 (not ?v_107))) (let ((?v_123 (not ?v_117)) (?v_166 (not ?v_51)) (?v_248 (< (- (- (* 20 x44) (* 9 x27)) (* 5 x28)) (- 5)))) (let ((?v_225 (not ?v_248)) (?v_230 (or ?v_108 ?v_33)) (?v_185 (not ?v_165)) (?v_171 (<= (+ (* (- 25) x45) (* 15 x15) (* 12 x45)) (- 5)))) (let ((?v_217 (not ?v_171)) (?v_223 (not ?v_87)) (?v_205 (not ?v_199))) (and (and (and (and (and (and (and (and (and (and (and (and (and (and (and (and (and (and (and (and (and (and (and (and (and (and (and (and (and (and (and (and (and (and (and (and (and (and (and (and (and (and (and (and (and (and (and (and (and (and (and (and (and (and (and (and (and (and (and (and (and (and (and (and (and (and (and (and (and (and (and (and (and (and (and (and (and (and (and (and (and (and (and (and (and (and (and (and (and (and (and (and (and (and (and (and (and (and (and (and (and (and (and (and (and (and (and (and (and (and (and (and (and (and (and (and (and (and (and (and (and (and (and (and (and (and (and (and (and (and (and (and (and (and (and (and (and (and (and (and (and (and (and (and (and (and (and (and (and (and (and (and (and (and (and (and (and (and (and (and (and (and (and (and (and (and (and (and (and (and (and (and (and (and (and (and (and (and (and (and (and (and (and (and (and (and (and (and (and (and (and (and (and (and (and (and (and (and (and (and (and (and (and (and (and (and (and (and (and (and (and (and (and (and (and (and (and (and (and (and (and (and (and (and (and (and (and (and (and (and (and (and (and (and (and (and (and (and (and (and (and (and (and (and (and (and (and (and (and (and (and (and (and (and (and (and (and (and (and (and (and (and (and (and (and (and (and (and (and (and (and (and (and (and (and (and (and (and (and (and (and (and (and (and (and (and (and (and (and (and (and (and (and (and (and (and (and (and (and (and (and (and (and (and (and (and (and (and (and (and (and (and (and (and (and (and (and (and (and (and (and (and (and (and (and (and (and (and (and (and (and (and (and (and (and (and (and (and (and (and (and (and (and (and (and (and (and (and (and (and (and (and (and (and (and (and (and (and (and (and (and (and (and (and (and (and (and (and (and (and (and (and (and (and (and (and (and (and (and (and (and (and (and (and (and (and (and (and (and (and (and (and (and (and (and (and (and (and (and (and (and (and (and (and (and (and (and (and (and (and (and (and (and (and (and (and (and (and (and (and (and (and (and (and (and (and (and (and (and (and (and (and (and (and (and (and (and (and (and (and (and (and (and (and (and (and (and (and (and (and (and (and (and (and (and (and (and (and (and (and (and (and (and (and (and (and (and (and (and (and (and (and (and (and (and (and (and (and (and (and (and (and (and (and (and (and (and (and (and (and (and (and (and (and (and (and (and (and (and (and (and (and (and (and (and (and (and (and (and (and (and (and (and (and (and (and (and (and (and (and (and (and (and (and (and (and (and (and (and (and (and (and (and (and (and (and (and (and (and (and (and (and (and (and (and (and (and (and (and (and (and (and (and (and (and (and (and (and (and (and (and (and (and (and (and (and (and (and (and (and (and (and (and (and (and (and (and (and (and (and (and (and (and (and (and (and (and (and (and (and (and (and (and (and (and (and (and (and (and (or (or ?v_55 ?v_24) ?v_0) (or (or ?v_92 ?v_157) ?v_16)) (or (or P25 ?v_1) ?v_0)) (or (or ?v_60 ?v_65) P31)) (or (or P32 ?v_17) ?v_7)) (or (or ?v_53 ?v_19) ?v_29)) (or (or ?v_54 ?v_1) ?v_142)) (or (or ?v_34 ?v_141) ?v_57)) (or (or P24 ?v_4) ?v_195)) (or (or ?v_1 ?v_30) ?v_40)) (or (or ?v_206 ?v_39) ?v_124)) (or (or ?v_100 ?v_37) P29)) (or (or ?v_9 ?v_5) ?v_33)) (or (or ?v_6 ?v_35) ?v_115)) (or (or ?v_7 P8) ?v_15)) (or (or ?v_47 ?v_93) ?v_49)) (or (or ?v_32 ?v_99) ?v_138)) (or (or ?v_11 P8) ?v_13)) (or (or ?v_58 ?v_12) ?v_27)) (or (or ?v_42 ?v_155) P49)) (or (or ?v_14 ?v_50) ?v_15)) (or (or ?v_22 ?v_56) P32)) (or (or P3 ?v_186) P18)) (or (or ?v_145 ?v_20) ?v_107)) (or (or ?v_19 ?v_62) ?v_71)) (or (or P25 ?v_159) ?v_253)) (or (or ?v_26 ?v_102) ?v_208)) (or (or ?v_119 ?v_68) P46)) (or (or ?v_22 ?v_121) ?v_23)) (or (or ?v_240 ?v_108) ?v_38)) (or (or ?v_24 ?v_25) P48)) (or (or ?v_59 ?v_183) ?v_26)) (or (or ?v_27 ?v_48) ?v_70)) (or (or ?v_77 ?v_22) ?v_29)) (or (or ?v_120 ?v_156) ?v_87)) (or (or ?v_30 P23) ?v_52)) (or (or ?v_0 ?v_114) ?v_146)) (or (or ?v_51 ?v_31) ?v_32)) (or (or ?v_103 ?v_153) ?v_247)) (or (or P15 ?v_35) P42)) (or (or ?v_86 ?v_37) ?v_136)) (or (or ?v_188 ?v_37) ?v_39)) (or (or ?v_40 ?v_81) P10)) (or (or ?v_41 ?v_149) ?v_42)) (or (or ?v_43 ?v_35) ?v_44)) (or (or ?v_214 ?v_82) ?v_45)) (or (or ?v_46 ?v_122) ?v_47)) (or (or ?v_29 ?v_109) P45)) (or (or ?v_41 ?v_196) ?v_105)) (or (or ?v_177 ?v_110) ?v_250)) (or (or P28 ?v_199) ?v_50)) (or (or ?v_51 P16) ?v_52)) (or (or ?v_53 ?v_66) ?v_44)) (or (or ?v_55 P12) ?v_33)) (or (or ?v_56 ?v_57) ?v_58)) (or (or ?v_59 ?v_60) ?v_63)) (or (or ?v_61 ?v_62) P33)) (or (or ?v_27 ?v_55) ?v_54)) (or (or ?v_182 ?v_56) ?v_260)) (or (or ?v_64 ?v_147) ?v_63)) (or (or ?v_241 ?v_64) ?v_65)) (or (or ?v_80 ?v_62) P38)) (or (or ?v_66 ?v_39) ?v_83)) (or (or ?v_68 ?v_69) P20)) (or (or P10 ?v_84) ?v_91)) (or (or P15 ?v_130) P35)) (or (or ?v_88 ?v_12) ?v_72)) (or (or P31 ?v_71) ?v_131)) (or (or ?v_228 P15) ?v_72)) (or (or ?v_73 ?v_212) ?v_97)) (or (or P8 ?v_85) ?v_76)) (or (or ?v_77 P41) ?v_258)) (or (or ?v_90 ?v_79) ?v_64)) (or (or ?v_128 ?v_29) ?v_233)) (or (or ?v_80 ?v_0) ?v_255)) (or (or ?v_17 ?v_14) ?v_12)) (or ?v_176 ?v_42)) (or (or P19 ?v_118) ?v_81)) (or (or ?v_164 ?v_82) ?v_83)) (or (or ?v_40 ?v_96) P47)) (or (or ?v_84 ?v_106) ?v_245)) (or (or ?v_165 ?v_85) ?v_143)) (or (or ?v_31 ?v_95) ?v_104)) (or (or ?v_87 P46) ?v_11)) (or (or ?v_88 P11) ?v_161)) (or (or ?v_71 ?v_129) ?v_98)) (or (or ?v_116 ?v_4) ?v_91)) (or (or ?v_92 ?v_93) ?v_1)) (or (or ?v_181 ?v_94) ?v_95)) (or (or P32 ?v_135) ?v_96)) (or (or P47 (not ?v_97)) P28)) (or (or ?v_98 ?v_99) ?v_79)) (or (or ?v_246 ?v_97) ?v_148)) (or (or ?v_71 ?v_40) ?v_35)) (or (or ?v_113 ?v_81) ?v_39)) (or (or ?v_100 ?v_194) ?v_220)) (or (or P44 ?v_184) ?v_102)) (or (or ?v_103 ?v_73) P13)) (or (or ?v_104 ?v_210) ?v_105)) (or (or ?v_168 P5) ?v_106)) (or (or ?v_56 ?v_79) ?v_117)) (or (or ?v_37 ?v_65) ?v_243)) (or (or ?v_175 ?v_134) ?v_112)) (or (or ?v_108 ?v_109) ?v_110)) (or (or ?v_180 ?v_90) ?v_111)) (or (or ?v_112 P11) ?v_86)) (or (or ?v_20 ?v_61) P2)) (or (or ?v_43 ?v_133) ?v_113)) (or (or ?v_114 P24) ?v_71)) (or (or ?v_53 ?v_115) ?v_173)) (or (or ?v_77 ?v_116) ?v_48)) (or (or ?v_123 ?v_158) ?v_37)) (or (or ?v_43 ?v_6) ?v_1)) (or (or ?v_25 ?v_150) ?v_112)) (or (or ?v_139 ?v_120) ?v_132)) (or (or ?v_84 ?v_69) ?v_121)) (or (or ?v_122 ?v_123) P29)) (or (or ?v_179 ?v_30) ?v_124)) (or (or ?v_15 ?v_103) ?v_125)) (or (or P25 ?v_126) ?v_127)) (or (or ?v_128 ?v_152) ?v_95)) (or (or ?v_118 ?v_5) P37)) (or (or ?v_43 ?v_96) ?v_79)) (or (or ?v_47 ?v_130) ?v_213)) (or (or ?v_0 P2) ?v_178)) (or (or ?v_166 ?v_131) ?v_137)) (or (or ?v_132 ?v_54) P2)) (or (or ?v_133 ?v_70) ?v_57)) (or (or P11 ?v_69) ?v_39)) (or (or P8 P4) ?v_134)) (or (or ?v_29 P35) ?v_90)) (or (or ?v_135 ?v_86) ?v_136)) (or (or ?v_170 ?v_138) ?v_202)) (or (or P23 P25) ?v_31)) (or (or ?v_244 ?v_140) ?v_45)) (or (or ?v_209 ?v_123) ?v_111)) (or (or ?v_106 ?v_95) ?v_141)) (or (or ?v_142 ?v_143) ?v_207)) (or (or ?v_98 ?v_46) ?v_55)) (or (or ?v_163 ?v_76) ?v_91)) (or (or ?v_53 ?v_145) ?v_146)) (or (or P32 ?v_147) ?v_138)) (or (or ?v_59 ?v_80) ?v_148)) (or (or ?v_88 ?v_133) ?v_149)) (or (or ?v_129 ?v_48) ?v_125)) (or (or ?v_147 ?v_63) ?v_142)) (or (or ?v_225 ?v_150) ?v_126)) (or (or P9 ?v_80) P17)) (or (or ?v_133 ?v_110) P13)) (or (or ?v_134 ?v_143) ?v_256)) (or ?v_230 ?v_92)) (or (or ?v_139 ?v_1) ?v_151)) (or (or P37 ?v_66) ?v_152)) (or (or ?v_153 ?v_27) ?v_79)) (or (or P18 ?v_154) ?v_49)) (or (or ?v_83 ?v_90) ?v_155)) (or (or P10 ?v_156) ?v_157)) (or (or ?v_158 ?v_135) ?v_159)) (or (or ?v_160 ?v_97) ?v_82)) (or (or ?v_131 ?v_29) ?v_73)) (or (or P27 ?v_159) ?v_161)) (or (or ?v_201 ?v_162) ?v_96)) (or (or ?v_163 ?v_221) ?v_83)) (or (or ?v_30 ?v_164) ?v_185)) (or (or ?v_12 ?v_50) P45)) (or (or ?v_163 ?v_166) ?v_115)) (or (or ?v_167 ?v_87) ?v_174)) (or (or P7 ?v_168) ?v_150)) (or (or ?v_169 ?v_106) ?v_79)) (or (or ?v_122 ?v_154) ?v_61)) (or (or ?v_170 ?v_217) P48)) (or (or ?v_171 ?v_22) ?v_172)) (or (or P38 ?v_155) (not ?v_114))) (or (or ?v_190 ?v_147) ?v_30)) (or (or ?v_173 ?v_161) ?v_172)) (or (or ?v_90 ?v_108) ?v_174)) (or (or ?v_73 P45) ?v_46)) (or (or P3 ?v_85) P31)) (or (or ?v_175 ?v_94) ?v_99)) (or (or ?v_30 ?v_112) ?v_51)) (or (or ?v_51 P45) ?v_53)) (or (or ?v_9 ?v_61) ?v_239)) (or (or ?v_157 P15) P3)) (or ?v_176 ?v_102)) (or (or ?v_249 ?v_177) P48)) (or (or ?v_13 ?v_82) P16)) (or (or ?v_197 ?v_178) ?v_147)) (or (or ?v_179 ?v_180) ?v_142)) (or (or P22 ?v_32) P2)) (or (or ?v_181 ?v_182) P1)) (or (or ?v_88 ?v_192) P18)) (or (or ?v_126 ?v_183) ?v_77)) (or (or ?v_166 ?v_95) ?v_9)) (or (or ?v_42 ?v_184) P7)) (or (or ?v_102 ?v_185) ?v_54)) (or (or ?v_60 ?v_182) ?v_216)) (or (or ?v_96 ?v_251) ?v_70)) (or (or ?v_72 ?v_9) ?v_186)) (or (or ?v_152 ?v_24) ?v_49)) (or (or ?v_187 ?v_59) P38)) (or (or P10 ?v_56) ?v_188)) (or (or P24 ?v_141) ?v_117)) (or (or ?v_189 ?v_190) P16)) (or (or ?v_29 ?v_165) ?v_204)) (or (or ?v_128 ?v_59) P20)) (or (or ?v_95 ?v_45) ?v_145)) (or (or ?v_223 ?v_164) ?v_5)) (or (or ?v_156 P19) P34)) (or (or P22 P39) P5)) (or (or ?v_151 ?v_120) ?v_46)) (or (or ?v_90 ?v_29) ?v_191)) (or (or P20 ?v_9) ?v_29)) (or (or P43 ?v_190) ?v_177)) (or (or ?v_192 ?v_45) ?v_193)) (or (or ?v_56 ?v_151) ?v_1)) (or (or P45 ?v_126) ?v_14)) (or (or P16 ?v_27) ?v_147)) (or (or ?v_119 P8) ?v_159)) (or (or ?v_194 ?v_115) ?v_69)) (or (or ?v_195 ?v_0) P25)) (or (or P29 P27) ?v_196)) (or (or ?v_197 ?v_198) ?v_205)) (or (or ?v_139 ?v_50) P4)) (or (or ?v_200 ?v_26) ?v_92)) (or (or P12 ?v_159) ?v_124)) (or (or ?v_201 P17) ?v_143)) (or (or ?v_1 ?v_41) P22)) (or (or ?v_202 ?v_57) ?v_203)) (or (or P39 ?v_149) P10)) (or (or ?v_204 ?v_47) P24)) (or (or ?v_138 ?v_130) P34)) (or (or P40 ?v_236) ?v_153)) (or (or ?v_205 ?v_206) ?v_226)) (or (or ?v_129 ?v_207) ?v_92)) (or (or ?v_139 ?v_22) P30)) (or (or ?v_173 P4) ?v_207)) (or (or ?v_83 ?v_97) ?v_30)) (or (or P22 ?v_218) ?v_189)) (or (or ?v_133 ?v_97) ?v_151)) (or (or ?v_98 ?v_73) P0)) (or (or ?v_33 ?v_208) ?v_134)) (or (or ?v_209 P43) ?v_26)) (or (or P6 ?v_192) ?v_63)) (or (or ?v_135 ?v_33) ?v_140)) (or (or ?v_107 ?v_29) ?v_210)) (or (or ?v_159 ?v_183) ?v_122)) (or (or ?v_163 ?v_34) ?v_211)) (or (or P27 ?v_212) ?v_16)) (or (or ?v_169 ?v_73) ?v_237)) (or (or ?v_125 P32) ?v_25)) (or (or P17 ?v_4) ?v_9)) (or (or ?v_92 ?v_121) ?v_195)) (or (or ?v_214 P16) ?v_254)) (or (or P23 P4) ?v_72)) (or (or ?v_215 ?v_162) ?v_23)) (or (or ?v_96 ?v_97) ?v_112)) (or (or ?v_181 P24) P42)) (or (or ?v_216 ?v_142) ?v_113)) (or (or P9 ?v_159) ?v_217)) (or (or ?v_76 ?v_125) ?v_189)) (or (or ?v_129 ?v_197) P45)) (or (or ?v_252 P44) ?v_5)) (or (or ?v_12 P8) ?v_161)) (or (or ?v_17 ?v_110) P40)) (or (or ?v_187 ?v_197) ?v_133)) (or (or ?v_4 ?v_218) ?v_5)) (or (or ?v_31 ?v_219) ?v_194)) (or (or ?v_80 P8) ?v_102)) (or (or ?v_56 ?v_98) ?v_148)) (or (or ?v_30 ?v_130) P6)) (or (or ?v_129 ?v_123) ?v_119)) (or (or ?v_41 ?v_191) ?v_68)) (or (or ?v_122 ?v_231) ?v_53)) (or (or ?v_220 ?v_221) ?v_222)) (or (or ?v_218 ?v_136) ?v_29)) (or (or ?v_17 ?v_95) ?v_202)) (or (or ?v_223 P25) ?v_166)) (or (or P2 P2) ?v_219)) (or (or ?v_183 ?v_165) ?v_224)) (or (or ?v_98 ?v_71) ?v_80)) (or (or ?v_187 ?v_227) ?v_13)) (or (or ?v_82 ?v_100) ?v_232)) (or (or P5 ?v_102) ?v_212)) (or (or ?v_98 ?v_262) ?v_225)) (or (or ?v_9 ?v_201) ?v_25)) (or (or ?v_48 ?v_95) ?v_26)) (or (or P40 ?v_54) P29)) (or (or ?v_226 ?v_49) ?v_227)) (or (or ?v_5 ?v_198) ?v_181)) (or (or ?v_228 ?v_229) P19)) (or (or ?v_184 ?v_205) ?v_102)) (or (or ?v_200 P41) ?v_149)) (or (or ?v_82 P32) ?v_186)) (or (or ?v_195 P22) ?v_208)) (or (or ?v_140 ?v_199) ?v_184)) (or (or ?v_185 P26) ?v_125)) (or ?v_230 P17)) (or (or ?v_39 ?v_130) ?v_193)) (or (or ?v_5 ?v_142) ?v_208)) (or (or P8 ?v_81) ?v_188)) (or (or P5 ?v_231) P23)) (or (or ?v_50 ?v_212) ?v_174)) (or (or ?v_154 ?v_54) ?v_69)) (or (or ?v_143 ?v_222) ?v_157)) (or (or ?v_92 P25) ?v_123)) (or (or ?v_192 P49) ?v_232)) (or (or ?v_182 ?v_189) ?v_9)) (or (or ?v_122 ?v_61) ?v_16)) (or (or ?v_65 ?v_129) ?v_100)) (or (or P12 ?v_100) P41)) (or (or ?v_217 ?v_87) ?v_53)) (or (or ?v_109 ?v_111) ?v_68)) (or (or ?v_174 ?v_233) ?v_201)) (or (or P39 ?v_15) ?v_217)) (or (or ?v_62 ?v_157) ?v_114)) (or (or ?v_114 P10) ?v_79)) (or (or ?v_233 ?v_43) ?v_135)) (or (or ?v_60 ?v_46) ?v_133)) (or (or ?v_234 ?v_50) ?v_229)) (or (or ?v_235 ?v_59) ?v_41)) (or (or ?v_120 ?v_177) ?v_99)) (or (or ?v_49 ?v_68) ?v_45)) (or (or ?v_231 ?v_46) P3)) (or (or P17 P37) ?v_236)) (or (or ?v_210 ?v_237) P22)) (or (or ?v_238 ?v_40) ?v_46)) (or (or ?v_239 ?v_178) ?v_175)) (or (or ?v_49 ?v_163) ?v_181)) (or (or ?v_200 ?v_160) P34)) (or (or P6 ?v_240) ?v_160)) (or (or ?v_127 ?v_104) ?v_31)) (or (or ?v_171 P28) ?v_234)) (or (or ?v_197 ?v_167) P19)) (or (or ?v_109 ?v_127) ?v_183)) (or (or ?v_238 ?v_241) ?v_1)) (or (or ?v_127 ?v_210) ?v_240)) (or (or ?v_99 ?v_139) P24)) (or (or ?v_145 ?v_86) ?v_117)) (or (or ?v_128 ?v_100) ?v_223)) (or (or ?v_219 ?v_46) ?v_33)) (or (or ?v_64 P9) ?v_100)) (or (or P36 ?v_88) ?v_200)) (or (or ?v_206 ?v_54) ?v_242)) (or (or ?v_100 ?v_243) ?v_199)) (or (or ?v_244 ?v_245) ?v_151)) (or (or ?v_209 ?v_246) ?v_34)) (or (or ?v_261 ?v_70) ?v_204)) (or (or P11 ?v_193) ?v_130)) (or (or P21 ?v_4) P40)) (or (or ?v_158 ?v_172) ?v_143)) (or (or ?v_149 ?v_247) ?v_94)) (or (or ?v_37 ?v_71) ?v_107)) (or (or ?v_126 P1) ?v_111)) (or (or ?v_184 ?v_6) P12)) (or (or ?v_66 ?v_25) ?v_44)) (or (or P34 ?v_102) P0)) (or (or ?v_107 ?v_60) ?v_66)) (or (or ?v_81 ?v_107) ?v_202)) (or (or ?v_95 (not ?v_138)) ?v_197)) (or (or P48 ?v_42) ?v_125)) (or (or ?v_197 ?v_102) ?v_131)) (or (or ?v_165 ?v_244) ?v_87)) (or (or ?v_107 ?v_9) ?v_48)) (or (or ?v_223 P44) ?v_118)) (or (or ?v_5 P10) ?v_225)) (or (or ?v_16 ?v_167) ?v_55)) (or (or P37 ?v_149) ?v_248)) (or (or ?v_157 ?v_249) ?v_115)) (or (or ?v_50 ?v_218) ?v_242)) (or (or ?v_37 ?v_53) P17)) (or (or ?v_257 ?v_149) ?v_70)) (or (or ?v_154 ?v_169) ?v_15)) (or (or P22 ?v_213) ?v_30)) (or (or ?v_250 ?v_201) ?v_190)) (or (or ?v_0 ?v_5) ?v_237)) (or (or ?v_72 ?v_214) ?v_110)) (or (or P0 ?v_239) ?v_150)) (or (or P37 ?v_62) ?v_7)) (or (or ?v_185 ?v_112) ?v_14)) (or (or ?v_38 ?v_194) P38)) (or (or P43 ?v_164) P14)) (or (or P11 ?v_79) ?v_185)) (or (or P24 ?v_47) ?v_234)) (or (or ?v_56 P38) ?v_145)) (or (or ?v_204 ?v_39) ?v_231)) (or (or P28 P23) ?v_0)) (or (or ?v_31 ?v_177) ?v_251)) (or (or ?v_243 ?v_47) P24)) (or (or ?v_71 ?v_128) ?v_212)) (or (or ?v_115 ?v_123) ?v_246)) (or (or ?v_51 P36) ?v_116)) (or (or ?v_62 ?v_162) ?v_236)) (or (or P42 P29) ?v_184)) (or (or ?v_150 ?v_111) ?v_33)) (or (or ?v_173 ?v_123) ?v_44)) (or (or ?v_224 P40) ?v_13)) (or (or ?v_243 P22) ?v_223)) (or (or ?v_146 ?v_238) ?v_131)) (or (or ?v_23 ?v_131) ?v_120)) (or (or ?v_210 ?v_181) ?v_226)) (or (or P36 ?v_150) ?v_4)) (or (or ?v_57 ?v_168) ?v_149)) (or (or ?v_110 ?v_73) ?v_132)) (or (or ?v_252 ?v_102) ?v_146)) (or (or ?v_12 ?v_117) ?v_217)) (or (or ?v_253 ?v_152) ?v_58)) (or (or ?v_184 ?v_171) P32)) (or (or ?v_86 ?v_254) ?v_136)) (or (or ?v_145 ?v_27) ?v_232)) (or (or ?v_208 P6) ?v_45)) (or (or ?v_82 ?v_244) ?v_99)) (or (or ?v_228 ?v_29) ?v_167)) (or (or ?v_239 ?v_206) P38)) (or (or P9 ?v_228) P5)) (or (or ?v_239 ?v_195) P49)) (or (or ?v_40 ?v_95) ?v_171)) (or (or ?v_43 ?v_203) ?v_194)) (or (or ?v_104 ?v_81) ?v_241)) (or (or P34 ?v_117) ?v_203)) (or (or ?v_59 ?v_167) ?v_23)) (or (or ?v_83 ?v_33) ?v_88)) (or (or ?v_6 ?v_97) ?v_86)) (or (or ?v_85 ?v_57) ?v_240)) (or (or ?v_44 ?v_39) ?v_31)) (or (or ?v_111 ?v_112) ?v_31)) (or (or ?v_26 ?v_187) P41)) (or (or ?v_232 ?v_23) P0)) (or (or ?v_80 ?v_41) P35)) (or (or ?v_224 ?v_123) ?v_248)) (or (or ?v_120 ?v_255) ?v_147)) (or (or ?v_111 ?v_212) ?v_1)) (or (or ?v_148 ?v_20) ?v_109)) (or (or ?v_94 P24) ?v_236)) (or (or P44 ?v_182) ?v_16)) (or (or ?v_65 ?v_245) ?v_39)) (or (or ?v_82 P28) ?v_129)) (or (or ?v_135 ?v_91) ?v_245)) (or (or P23 ?v_27) ?v_256)) (or (or ?v_215 ?v_97) ?v_251)) (or (or P45 ?v_201) ?v_147)) (or (or ?v_216 ?v_34) ?v_118)) (or (or P42 ?v_244) ?v_9)) (or (or ?v_55 ?v_33) P36)) (or (or ?v_166 ?v_96) ?v_50)) (or (or ?v_249 ?v_162) ?v_23)) (or (or ?v_57 ?v_62) ?v_250)) (or (or ?v_76 ?v_233) ?v_98)) (or (or ?v_161 ?v_65) P11)) (or (or ?v_15 ?v_41) ?v_100)) (or (or P14 ?v_180) P1)) (or (or P23 P40) ?v_240)) (or (or ?v_151 ?v_69) ?v_51)) (or (or ?v_137 ?v_96) ?v_204)) (or (or ?v_54 ?v_192) ?v_248)) (or (or ?v_86 ?v_212) ?v_164)) (or (or P16 ?v_60) ?v_125)) (or (or ?v_156 ?v_150) ?v_168)) (or (or ?v_64 P40) ?v_240)) (or (or ?v_257 ?v_201) ?v_258)) (or (or ?v_187 ?v_250) ?v_52)) (or (or ?v_255 P33) P49)) (or (or ?v_204 ?v_167) ?v_94)) (or (or ?v_192 ?v_33) ?v_193)) (or (or ?v_216 ?v_69) ?v_108)) (or (or ?v_206 ?v_242) ?v_232)) (or (or ?v_115 ?v_32) ?v_110)) (or (or ?v_109 ?v_136) ?v_40)) (or (or ?v_195 ?v_171) P30)) (or (or ?v_130 P19) ?v_14)) (or (or ?v_196 ?v_22) ?v_206)) (or (or ?v_171 ?v_61) ?v_9)) (or (or P22 ?v_38) ?v_14)) (or (or ?v_15 ?v_98) ?v_124)) (or (or ?v_64 ?v_199) ?v_6)) (or (or ?v_249 ?v_65) ?v_157)) (or (or P36 ?v_231) ?v_255)) (or (or ?v_161 ?v_252) ?v_200)) (or (or ?v_197 ?v_132) ?v_7)) (or (or ?v_9 ?v_91) ?v_259)) (or (or ?v_246 ?v_59) ?v_86)) (or (or ?v_31 P13) ?v_169)) (or (or ?v_33 ?v_238) ?v_9)) (or (or ?v_189 ?v_179) ?v_19)) (or (or ?v_178 P46) ?v_204)) (or (or ?v_146 ?v_64) ?v_196)) (or (or ?v_59 ?v_255) ?v_37)) (or (or ?v_65 ?v_194) ?v_51)) (or (or P40 ?v_57) ?v_25)) (or (or ?v_136 ?v_148) ?v_48)) (or (or ?v_178 ?v_154) P48)) (or (or ?v_92 ?v_124) ?v_232)) (or (or ?v_175 ?v_250) ?v_260)) (or (or ?v_153 ?v_242) ?v_125)) (or (or ?v_172 ?v_120) ?v_174)) (or (or ?v_228 ?v_178) P29)) (or (or ?v_241 ?v_107) P6)) (or (or ?v_170 ?v_33) ?v_258)) (or (or ?v_198 ?v_218) P39)) (or (or ?v_113 P37) ?v_87)) (or (or P42 P27) ?v_45)) (or (or ?v_134 P8) ?v_57)) (or (or ?v_29 ?v_213) ?v_214)) (or (or P33 ?v_103) ?v_219)) (or (or ?v_202 ?v_120) ?v_177)) (or (or ?v_119 ?v_207) ?v_116)) (or (or ?v_63 ?v_150) ?v_102)) (or (or ?v_112 ?v_11) ?v_178)) (or (or ?v_212 ?v_189) ?v_156)) (or (or P21 ?v_138) ?v_226)) (or (or ?v_242 ?v_86) ?v_171)) (or (or ?v_178 ?v_124) ?v_203)) (or (or ?v_190 ?v_206) ?v_142)) (or (or ?v_134 ?v_87) ?v_208)) (or (or ?v_108 ?v_242) ?v_103)) (or (or ?v_246 ?v_143) ?v_178)) (or (or P44 P28) P16)) (or (or P32 ?v_198) ?v_57)) (or (or ?v_119 ?v_169) P43)) (or (or ?v_133 ?v_224) ?v_37)) (or (or ?v_7 ?v_97) ?v_32)) (or (or ?v_164 P25) ?v_223)) (or (or ?v_0 P13) ?v_157)) (or (or P14 ?v_224) P12)) (or (or ?v_151 ?v_90) ?v_216)) (or (or ?v_23 ?v_170) ?v_98)) (or (or ?v_210 ?v_105) ?v_159)) (or ?v_263 ?v_11)) (or (or P14 ?v_123) P10)) (or (or P39 ?v_76) ?v_56)) (or (or ?v_198 ?v_96) ?v_169)) (or (or P40 ?v_257) ?v_62)) (or (or ?v_226 ?v_185) P30)) (or (or ?v_147 ?v_170) ?v_51)) (or (or ?v_200 ?v_232) P45)) (or (or ?v_162 ?v_122) ?v_157)) (or (or ?v_64 ?v_195) ?v_127)) (or (or ?v_158 ?v_150) ?v_140)) (or (or ?v_92 ?v_87) ?v_250)) (or (or ?v_255 ?v_193) ?v_216)) (or (or ?v_162 ?v_217) ?v_133)) (or (or ?v_216 ?v_114) ?v_258)) (or (or ?v_184 ?v_32) P14)) (or (or P28 P40) ?v_244)) (or (or ?v_199 P48) P5)) (or (or ?v_22 ?v_48) ?v_124)) (or (or P42 ?v_65) ?v_146)) (or (or ?v_104 ?v_229) ?v_85)) (or (or ?v_1 ?v_213) ?v_181)) (or (or ?v_52 P16) ?v_138)) (or (or P21 ?v_214) ?v_159)) (or (or ?v_131 ?v_83) P28)) (or (or ?v_16 ?v_109) ?v_187)) (or (or ?v_239 ?v_121) ?v_174)) (or (or ?v_19 ?v_86) ?v_111)) (or (or ?v_7 ?v_152) ?v_43)) (or (or ?v_219 P46) ?v_206)) (or (or ?v_13 P12) ?v_46)) (or (or ?v_45 ?v_5) ?v_14)) (or (or ?v_158 ?v_96) ?v_196)) (or (or ?v_83 P23) ?v_243)) (or (or ?v_1 P49) ?v_235)) (or (or P4 ?v_136) ?v_179)) (or (or ?v_126 ?v_151) ?v_98)) (or (or ?v_222 ?v_64) ?v_221)) (or (or ?v_170 ?v_239) P20)) (or (or P17 ?v_178) ?v_162)) (or (or ?v_100 ?v_220) ?v_208)) (or (or ?v_97 ?v_27) ?v_245)) (or (or ?v_235 ?v_180) ?v_105)) (or (or ?v_79 ?v_234) ?v_259)) (or (or ?v_7 ?v_111) ?v_94)) (or (or ?v_13 ?v_34) ?v_120)) (or (or ?v_95 ?v_32) ?v_136)) (or (or ?v_219 P2) ?v_102)) (or (or ?v_185 ?v_99) ?v_124)) (or (or ?v_122 ?v_27) ?v_102)) (or (or ?v_143 ?v_107) ?v_186)) (or (or ?v_31 ?v_245) ?v_234)) (or (or ?v_258 ?v_23) ?v_71)) (or (or P13 ?v_99) ?v_148)) (or (or ?v_161 ?v_206) ?v_158)) (or (or ?v_54 ?v_177) ?v_162)) (or (or ?v_105 ?v_218) ?v_165)) (or (or P20 ?v_88) ?v_145)) (or (or ?v_254 ?v_25) ?v_107)) (or (or ?v_261 ?v_180) ?v_86)) (or (or ?v_83 ?v_48) P12)) (or (or ?v_212 ?v_262) ?v_172)) (or (or ?v_30 ?v_215) ?v_259)) (or (or ?v_237 P31) ?v_106)) (or (or P13 (not ?v_35)) ?v_121)) (or (or ?v_213 P42) ?v_46)) (or (or P46 ?v_107) ?v_53)) (or (or ?v_81 P48) ?v_181)) (or (or ?v_258 ?v_4) ?v_231)) (or (or ?v_47 ?v_103) P15)) (or ?v_263 ?v_85)) (or (or ?v_102 ?v_132) ?v_33)) (or (or ?v_236 ?v_255) ?v_214)) (or (or ?v_169 ?v_180) ?v_130)))))))))))))))))))))))))))))))))))))))))))
(check-sat)
(exit)
